p cnf 310 1177
1 0
-2 0
-3 0
-4 0
-5 0
31 6 0
-31 -6 0
6 7 8 9 10 0
-181 -182 0
-181 -183 0
-182 -183 0
-184 -185 0
-6 181 0
-6 184 0
-7 181 0
-7 185 0
-8 182 0
-8 184 0
-9 182 0
-9 185 0
-10 183 0
-10 184 0
-6 1 11 0
-6 1 36 0
-6 11 36 0
-7 2 12 0
-7 2 37 0
-7 12 37 0
-8 3 13 0
-8 3 38 0
-8 13 38 0
-9 4 14 0
-9 4 39 0
-9 14 39 0
-10 5 15 0
-10 5 40 0
-10 15 40 0
-6 -1 -11 -36 0
-7 -2 -12 -37 0
-8 -3 -13 -38 0
-9 -4 -14 -39 0
-10 -5 -15 -40 0
11 12 13 14 15 0
-186 -187 0
-186 -188 0
-187 -188 0
-189 -190 0
-11 186 0
-11 189 0
-12 186 0
-12 190 0
-13 187 0
-13 189 0
-14 187 0
-14 190 0
-15 188 0
-15 189 0
-11 6 16 0
-11 6 41 0
-11 16 41 0
-12 7 17 0
-12 7 42 0
-12 17 42 0
-13 8 18 0
-13 8 43 0
-13 18 43 0
-14 9 19 0
-14 9 44 0
-14 19 44 0
-15 10 20 0
-15 10 45 0
-15 20 45 0
-11 -6 -16 -41 0
-12 -7 -17 -42 0
-13 -8 -18 -43 0
-14 -9 -19 -44 0
-15 -10 -20 -45 0
16 17 18 19 20 0
-191 -192 0
-191 -193 0
-192 -193 0
-194 -195 0
-16 191 0
-16 194 0
-17 191 0
-17 195 0
-18 192 0
-18 194 0
-19 192 0
-19 195 0
-20 193 0
-20 194 0
-16 11 21 0
-16 11 46 0
-16 21 46 0
-17 12 22 0
-17 12 47 0
-17 22 47 0
-18 13 23 0
-18 13 48 0
-18 23 48 0
-19 14 24 0
-19 14 49 0
-19 24 49 0
-20 15 25 0
-20 15 50 0
-20 25 50 0
-16 -11 -21 -46 0
-17 -12 -22 -47 0
-18 -13 -23 -48 0
-19 -14 -24 -49 0
-20 -15 -25 -50 0
21 22 23 24 25 0
-196 -197 0
-196 -198 0
-197 -198 0
-199 -200 0
-21 196 0
-21 199 0
-22 196 0
-22 200 0
-23 197 0
-23 199 0
-24 197 0
-24 200 0
-25 198 0
-25 199 0
-21 16 26 0
-21 16 51 0
-21 26 51 0
-22 17 27 0
-22 17 52 0
-22 27 52 0
-23 18 28 0
-23 18 53 0
-23 28 53 0
-24 19 29 0
-24 19 54 0
-24 29 54 0
-25 20 30 0
-25 20 55 0
-25 30 55 0
-21 -16 -26 -51 0
-22 -17 -27 -52 0
-23 -18 -28 -53 0
-24 -19 -29 -54 0
-25 -20 -30 -55 0
26 27 28 29 30 0
-201 -202 0
-201 -203 0
-202 -203 0
-204 -205 0
-26 201 0
-26 204 0
-27 201 0
-27 205 0
-28 202 0
-28 204 0
-29 202 0
-29 205 0
-30 203 0
-30 204 0
-26 56 0
-26 21 0
-27 57 0
-27 22 0
-28 58 0
-28 23 0
-29 59 0
-29 24 0
-30 60 0
-30 25 0
31 32 33 34 35 0
-206 -207 0
-206 -208 0
-207 -208 0
-209 -210 0
-31 206 0
-31 209 0
-32 206 0
-32 210 0
-33 207 0
-33 209 0
-34 207 0
-34 210 0
-35 208 0
-35 209 0
-31 61 36 0
-31 61 1 0
-31 36 1 0
-32 62 37 0
-32 62 2 0
-32 37 2 0
-33 63 38 0
-33 63 3 0
-33 38 3 0
-34 64 39 0
-34 64 4 0
-34 39 4 0
-35 65 40 0
-35 65 5 0
-35 40 5 0
-31 -61 -36 -1 0
-32 -62 -37 -2 0
-33 -63 -38 -3 0
-34 -64 -39 -4 0
-35 -65 -40 -5 0
37 0
-36 0
-38 0
-39 0
-40 0
67 42 7 32 0
-67 -42 0
-67 -7 0
-67 -32 0
-42 -7 0
-42 -32 0
-7 -32 0
43 0
-41 0
-42 0
-44 0
-45 0
73 48 13 38 0
-73 -48 0
-73 -13 0
-73 -38 0
-48 -13 0
-48 -38 0
-13 -38 0
46 47 48 49 50 0
-211 -212 0
-211 -213 0
-212 -213 0
-214 -215 0
-46 211 0
-46 214 0
-47 211 0
-47 215 0
-48 212 0
-48 214 0
-49 212 0
-49 215 0
-50 213 0
-50 214 0
-46 76 51 16 0
-46 76 51 41 0
-46 76 16 41 0
-46 51 16 41 0
-47 77 52 17 0
-47 77 52 42 0
-47 77 17 42 0
-47 52 17 42 0
-48 78 53 18 0
-48 78 53 43 0
-48 78 18 43 0
-48 53 18 43 0
-49 79 54 19 0
-49 79 54 44 0
-49 79 19 44 0
-49 54 19 44 0
-50 80 55 20 0
-50 80 55 45 0
-50 80 20 45 0
-50 55 20 45 0
-46 -76 -51 -16 0
-46 -76 -51 -41 0
-46 -76 -16 -41 0
-46 -51 -16 -41 0
-47 -77 -52 -17 0
-47 -77 -52 -42 0
-47 -77 -17 -42 0
-47 -52 -17 -42 0
-48 -78 -53 -18 0
-48 -78 -53 -43 0
-48 -78 -18 -43 0
-48 -53 -18 -43 0
-49 -79 -54 -19 0
-49 -79 -54 -44 0
-49 -79 -19 -44 0
-49 -54 -19 -44 0
-50 -80 -55 -20 0
-50 -80 -55 -45 0
-50 -80 -20 -45 0
-50 -55 -20 -45 0
51 52 53 54 55 0
-216 -217 0
-216 -218 0
-217 -218 0
-219 -220 0
-51 216 0
-51 219 0
-52 216 0
-52 220 0
-53 217 0
-53 219 0
-54 217 0
-54 220 0
-55 218 0
-55 219 0
-51 81 56 21 0
-51 81 56 46 0
-51 81 21 46 0
-51 56 21 46 0
-52 82 57 22 0
-52 82 57 47 0
-52 82 22 47 0
-52 57 22 47 0
-53 83 58 23 0
-53 83 58 48 0
-53 83 23 48 0
-53 58 23 48 0
-54 84 59 24 0
-54 84 59 49 0
-54 84 24 49 0
-54 59 24 49 0
-55 85 60 25 0
-55 85 60 50 0
-55 85 25 50 0
-55 60 25 50 0
-51 -81 -56 -21 0
-51 -81 -56 -46 0
-51 -81 -21 -46 0
-51 -56 -21 -46 0
-52 -82 -57 -22 0
-52 -82 -57 -47 0
-52 -82 -22 -47 0
-52 -57 -22 -47 0
-53 -83 -58 -23 0
-53 -83 -58 -48 0
-53 -83 -23 -48 0
-53 -58 -23 -48 0
-54 -84 -59 -24 0
-54 -84 -59 -49 0
-54 -84 -24 -49 0
-54 -59 -24 -49 0
-55 -85 -60 -25 0
-55 -85 -60 -50 0
-55 -85 -25 -50 0
-55 -60 -25 -50 0
56 57 58 59 60 0
-221 -222 0
-221 -223 0
-222 -223 0
-224 -225 0
-56 221 0
-56 224 0
-57 221 0
-57 225 0
-58 222 0
-58 224 0
-59 222 0
-59 225 0
-60 223 0
-60 224 0
-56 86 51 0
-56 86 26 0
-56 51 26 0
-57 87 52 0
-57 87 27 0
-57 52 27 0
-58 88 53 0
-58 88 28 0
-58 53 28 0
-59 89 54 0
-59 89 29 0
-59 54 29 0
-60 90 55 0
-60 90 30 0
-60 55 30 0
-56 -86 -51 -26 0
-57 -87 -52 -27 0
-58 -88 -53 -28 0
-59 -89 -54 -29 0
-60 -90 -55 -30 0
61 62 63 64 65 0
-226 -227 0
-226 -228 0
-227 -228 0
-229 -230 0
-61 226 0
-61 229 0
-62 226 0
-62 230 0
-63 227 0
-63 229 0
-64 227 0
-64 230 0
-65 228 0
-65 229 0
-61 91 66 0
-61 91 31 0
-61 66 31 0
-62 92 67 0
-62 92 32 0
-62 67 32 0
-63 93 68 0
-63 93 33 0
-63 68 33 0
-64 94 69 0
-64 94 34 0
-64 69 34 0
-65 95 70 0
-65 95 35 0
-65 70 35 0
-61 -91 -66 -31 0
-62 -92 -67 -32 0
-63 -93 -68 -33 0
-64 -94 -69 -34 0
-65 -95 -70 -35 0
66 67 68 69 70 0
-231 -232 0
-231 -233 0
-232 -233 0
-234 -235 0
-66 231 0
-66 234 0
-67 231 0
-67 235 0
-68 232 0
-68 234 0
-69 232 0
-69 235 0
-70 233 0
-70 234 0
-66 96 71 36 0
-66 96 71 61 0
-66 96 36 61 0
-66 71 36 61 0
-67 97 72 37 0
-67 97 72 62 0
-67 97 37 62 0
-67 72 37 62 0
-68 98 73 38 0
-68 98 73 63 0
-68 98 38 63 0
-68 73 38 63 0
-69 99 74 39 0
-69 99 74 64 0
-69 99 39 64 0
-69 74 39 64 0
-70 100 75 40 0
-70 100 75 65 0
-70 100 40 65 0
-70 75 40 65 0
-66 -96 -71 -36 0
-66 -96 -71 -61 0
-66 -96 -36 -61 0
-66 -71 -36 -61 0
-67 -97 -72 -37 0
-67 -97 -72 -62 0
-67 -97 -37 -62 0
-67 -72 -37 -62 0
-68 -98 -73 -38 0
-68 -98 -73 -63 0
-68 -98 -38 -63 0
-68 -73 -38 -63 0
-69 -99 -74 -39 0
-69 -99 -74 -64 0
-69 -99 -39 -64 0
-69 -74 -39 -64 0
-70 -100 -75 -40 0
-70 -100 -75 -65 0
-70 -100 -40 -65 0
-70 -75 -40 -65 0
71 72 73 74 75 0
-236 -237 0
-236 -238 0
-237 -238 0
-239 -240 0
-71 236 0
-71 239 0
-72 236 0
-72 240 0
-73 237 0
-73 239 0
-74 237 0
-74 240 0
-75 238 0
-75 239 0
-71 101 76 41 0
-71 101 76 66 0
-71 101 41 66 0
-71 76 41 66 0
-72 102 77 42 0
-72 102 77 67 0
-72 102 42 67 0
-72 77 42 67 0
-73 103 78 43 0
-73 103 78 68 0
-73 103 43 68 0
-73 78 43 68 0
-74 104 79 44 0
-74 104 79 69 0
-74 104 44 69 0
-74 79 44 69 0
-75 105 80 45 0
-75 105 80 70 0
-75 105 45 70 0
-75 80 45 70 0
-71 -101 -76 -41 0
-71 -101 -76 -66 0
-71 -101 -41 -66 0
-71 -76 -41 -66 0
-72 -102 -77 -42 0
-72 -102 -77 -67 0
-72 -102 -42 -67 0
-72 -77 -42 -67 0
-73 -103 -78 -43 0
-73 -103 -78 -68 0
-73 -103 -43 -68 0
-73 -78 -43 -68 0
-74 -104 -79 -44 0
-74 -104 -79 -69 0
-74 -104 -44 -69 0
-74 -79 -44 -69 0
-75 -105 -80 -45 0
-75 -105 -80 -70 0
-75 -105 -45 -70 0
-75 -80 -45 -70 0
76 77 78 79 80 0
-241 -242 0
-241 -243 0
-242 -243 0
-244 -245 0
-76 241 0
-76 244 0
-77 241 0
-77 245 0
-78 242 0
-78 244 0
-79 242 0
-79 245 0
-80 243 0
-80 244 0
-76 106 81 46 0
-76 106 81 71 0
-76 106 46 71 0
-76 81 46 71 0
-77 107 82 47 0
-77 107 82 72 0
-77 107 47 72 0
-77 82 47 72 0
-78 108 83 48 0
-78 108 83 73 0
-78 108 48 73 0
-78 83 48 73 0
-79 109 84 49 0
-79 109 84 74 0
-79 109 49 74 0
-79 84 49 74 0
-80 110 85 50 0
-80 110 85 75 0
-80 110 50 75 0
-80 85 50 75 0
-76 -106 -81 -46 0
-76 -106 -81 -71 0
-76 -106 -46 -71 0
-76 -81 -46 -71 0
-77 -107 -82 -47 0
-77 -107 -82 -72 0
-77 -107 -47 -72 0
-77 -82 -47 -72 0
-78 -108 -83 -48 0
-78 -108 -83 -73 0
-78 -108 -48 -73 0
-78 -83 -48 -73 0
-79 -109 -84 -49 0
-79 -109 -84 -74 0
-79 -109 -49 -74 0
-79 -84 -49 -74 0
-80 -110 -85 -50 0
-80 -110 -85 -75 0
-80 -110 -50 -75 0
-80 -85 -50 -75 0
81 82 83 84 85 0
-246 -247 0
-246 -248 0
-247 -248 0
-249 -250 0
-81 246 0
-81 249 0
-82 246 0
-82 250 0
-83 247 0
-83 249 0
-84 247 0
-84 250 0
-85 248 0
-85 249 0
-81 111 86 51 0
-81 111 86 76 0
-81 111 51 76 0
-81 86 51 76 0
-82 112 87 52 0
-82 112 87 77 0
-82 112 52 77 0
-82 87 52 77 0
-83 113 88 53 0
-83 113 88 78 0
-83 113 53 78 0
-83 88 53 78 0
-84 114 89 54 0
-84 114 89 79 0
-84 114 54 79 0
-84 89 54 79 0
-85 115 90 55 0
-85 115 90 80 0
-85 115 55 80 0
-85 90 55 80 0
-81 -111 -86 -51 0
-81 -111 -86 -76 0
-81 -111 -51 -76 0
-81 -86 -51 -76 0
-82 -112 -87 -52 0
-82 -112 -87 -77 0
-82 -112 -52 -77 0
-82 -87 -52 -77 0
-83 -113 -88 -53 0
-83 -113 -88 -78 0
-83 -113 -53 -78 0
-83 -88 -53 -78 0
-84 -114 -89 -54 0
-84 -114 -89 -79 0
-84 -114 -54 -79 0
-84 -89 -54 -79 0
-85 -115 -90 -55 0
-85 -115 -90 -80 0
-85 -115 -55 -80 0
-85 -90 -55 -80 0
86 87 88 89 90 0
-251 -252 0
-251 -253 0
-252 -253 0
-254 -255 0
-86 251 0
-86 254 0
-87 251 0
-87 255 0
-88 252 0
-88 254 0
-89 252 0
-89 255 0
-90 253 0
-90 254 0
-86 116 81 0
-86 116 56 0
-86 81 56 0
-87 117 82 0
-87 117 57 0
-87 82 57 0
-88 118 83 0
-88 118 58 0
-88 83 58 0
-89 119 84 0
-89 119 59 0
-89 84 59 0
-90 120 85 0
-90 120 60 0
-90 85 60 0
-86 -116 -81 -56 0
-87 -117 -82 -57 0
-88 -118 -83 -58 0
-89 -119 -84 -59 0
-90 -120 -85 -60 0
91 92 93 94 95 0
-256 -257 0
-256 -258 0
-257 -258 0
-259 -260 0
-91 256 0
-91 259 0
-92 256 0
-92 260 0
-93 257 0
-93 259 0
-94 257 0
-94 260 0
-95 258 0
-95 259 0
-91 121 96 0
-91 121 61 0
-91 96 61 0
-92 122 97 0
-92 122 62 0
-92 97 62 0
-93 123 98 0
-93 123 63 0
-93 98 63 0
-94 124 99 0
-94 124 64 0
-94 99 64 0
-95 125 100 0
-95 125 65 0
-95 100 65 0
-91 -121 -96 -61 0
-92 -122 -97 -62 0
-93 -123 -98 -63 0
-94 -124 -99 -64 0
-95 -125 -100 -65 0
99 0
-96 0
-97 0
-98 0
-100 0
129 104 69 94 0
-129 -104 0
-129 -69 0
-129 -94 0
-104 -69 0
-104 -94 0
-69 -94 0
105 0
-101 0
-102 0
-103 0
-104 0
135 110 75 100 0
-135 -110 0
-135 -75 0
-135 -100 0
-110 -75 0
-110 -100 0
-75 -100 0
109 0
-106 0
-107 0
-108 0
-110 0
139 114 79 104 0
-139 -114 0
-139 -79 0
-139 -104 0
-114 -79 0
-114 -104 0
-79 -104 0
111 112 113 114 115 0
-261 -262 0
-261 -263 0
-262 -263 0
-264 -265 0
-111 261 0
-111 264 0
-112 261 0
-112 265 0
-113 262 0
-113 264 0
-114 262 0
-114 265 0
-115 263 0
-115 264 0
-111 141 116 81 0
-111 141 116 106 0
-111 141 81 106 0
-111 116 81 106 0
-112 142 117 82 0
-112 142 117 107 0
-112 142 82 107 0
-112 117 82 107 0
-113 143 118 83 0
-113 143 118 108 0
-113 143 83 108 0
-113 118 83 108 0
-114 144 119 84 0
-114 144 119 109 0
-114 144 84 109 0
-114 119 84 109 0
-115 145 120 85 0
-115 145 120 110 0
-115 145 85 110 0
-115 120 85 110 0
-111 -141 -116 -81 0
-111 -141 -116 -106 0
-111 -141 -81 -106 0
-111 -116 -81 -106 0
-112 -142 -117 -82 0
-112 -142 -117 -107 0
-112 -142 -82 -107 0
-112 -117 -82 -107 0
-113 -143 -118 -83 0
-113 -143 -118 -108 0
-113 -143 -83 -108 0
-113 -118 -83 -108 0
-114 -144 -119 -84 0
-114 -144 -119 -109 0
-114 -144 -84 -109 0
-114 -119 -84 -109 0
-115 -145 -120 -85 0
-115 -145 -120 -110 0
-115 -145 -85 -110 0
-115 -120 -85 -110 0
116 117 118 119 120 0
-266 -267 0
-266 -268 0
-267 -268 0
-269 -270 0
-116 266 0
-116 269 0
-117 266 0
-117 270 0
-118 267 0
-118 269 0
-119 267 0
-119 270 0
-120 268 0
-120 269 0
-116 146 111 0
-116 146 86 0
-116 111 86 0
-117 147 112 0
-117 147 87 0
-117 112 87 0
-118 148 113 0
-118 148 88 0
-118 113 88 0
-119 149 114 0
-119 149 89 0
-119 114 89 0
-120 150 115 0
-120 150 90 0
-120 115 90 0
-116 -146 -111 -86 0
-117 -147 -112 -87 0
-118 -148 -113 -88 0
-119 -149 -114 -89 0
-120 -150 -115 -90 0
121 122 123 124 125 0
-271 -272 0
-271 -273 0
-272 -273 0
-274 -275 0
-121 271 0
-121 274 0
-122 271 0
-122 275 0
-123 272 0
-123 274 0
-124 272 0
-124 275 0
-125 273 0
-125 274 0
-121 151 126 0
-121 151 91 0
-121 126 91 0
-122 152 127 0
-122 152 92 0
-122 127 92 0
-123 153 128 0
-123 153 93 0
-123 128 93 0
-124 154 129 0
-124 154 94 0
-124 129 94 0
-125 155 130 0
-125 155 95 0
-125 130 95 0
-121 -151 -126 -91 0
-122 -152 -127 -92 0
-123 -153 -128 -93 0
-124 -154 -129 -94 0
-125 -155 -130 -95 0
130 0
-126 0
-127 0
-128 0
-129 0
160 135 100 125 0
-160 -135 0
-160 -100 0
-160 -125 0
-135 -100 0
-135 -125 0
-100 -125 0
131 132 133 134 135 0
-276 -277 0
-276 -278 0
-277 -278 0
-279 -280 0
-131 276 0
-131 279 0
-132 276 0
-132 280 0
-133 277 0
-133 279 0
-134 277 0
-134 280 0
-135 278 0
-135 279 0
-131 161 136 101 0
-131 161 136 126 0
-131 161 101 126 0
-131 136 101 126 0
-132 162 137 102 0
-132 162 137 127 0
-132 162 102 127 0
-132 137 102 127 0
-133 163 138 103 0
-133 163 138 128 0
-133 163 103 128 0
-133 138 103 128 0
-134 164 139 104 0
-134 164 139 129 0
-134 164 104 129 0
-134 139 104 129 0
-135 165 140 105 0
-135 165 140 130 0
-135 165 105 130 0
-135 140 105 130 0
-131 -161 -136 -101 0
-131 -161 -136 -126 0
-131 -161 -101 -126 0
-131 -136 -101 -126 0
-132 -162 -137 -102 0
-132 -162 -137 -127 0
-132 -162 -102 -127 0
-132 -137 -102 -127 0
-133 -163 -138 -103 0
-133 -163 -138 -128 0
-133 -163 -103 -128 0
-133 -138 -103 -128 0
-134 -164 -139 -104 0
-134 -164 -139 -129 0
-134 -164 -104 -129 0
-134 -139 -104 -129 0
-135 -165 -140 -105 0
-135 -165 -140 -130 0
-135 -165 -105 -130 0
-135 -140 -105 -130 0
137 0
-136 0
-138 0
-139 0
-140 0
167 142 107 132 0
-167 -142 0
-167 -107 0
-167 -132 0
-142 -107 0
-142 -132 0
-107 -132 0
141 142 143 144 145 0
-281 -282 0
-281 -283 0
-282 -283 0
-284 -285 0
-141 281 0
-141 284 0
-142 281 0
-142 285 0
-143 282 0
-143 284 0
-144 282 0
-144 285 0
-145 283 0
-145 284 0
-141 171 146 111 0
-141 171 146 136 0
-141 171 111 136 0
-141 146 111 136 0
-142 172 147 112 0
-142 172 147 137 0
-142 172 112 137 0
-142 147 112 137 0
-143 173 148 113 0
-143 173 148 138 0
-143 173 113 138 0
-143 148 113 138 0
-144 174 149 114 0
-144 174 149 139 0
-144 174 114 139 0
-144 149 114 139 0
-145 175 150 115 0
-145 175 150 140 0
-145 175 115 140 0
-145 150 115 140 0
-141 -171 -146 -111 0
-141 -171 -146 -136 0
-141 -171 -111 -136 0
-141 -146 -111 -136 0
-142 -172 -147 -112 0
-142 -172 -147 -137 0
-142 -172 -112 -137 0
-142 -147 -112 -137 0
-143 -173 -148 -113 0
-143 -173 -148 -138 0
-143 -173 -113 -138 0
-143 -148 -113 -138 0
-144 -174 -149 -114 0
-144 -174 -149 -139 0
-144 -174 -114 -139 0
-144 -149 -114 -139 0
-145 -175 -150 -115 0
-145 -175 -150 -140 0
-145 -175 -115 -140 0
-145 -150 -115 -140 0
146 147 148 149 150 0
-286 -287 0
-286 -288 0
-287 -288 0
-289 -290 0
-146 286 0
-146 289 0
-147 286 0
-147 290 0
-148 287 0
-148 289 0
-149 287 0
-149 290 0
-150 288 0
-150 289 0
-146 176 141 0
-146 176 116 0
-146 141 116 0
-147 177 142 0
-147 177 117 0
-147 142 117 0
-148 178 143 0
-148 178 118 0
-148 143 118 0
-149 179 144 0
-149 179 119 0
-149 144 119 0
-150 180 145 0
-150 180 120 0
-150 145 120 0
-146 -176 -141 -116 0
-147 -177 -142 -117 0
-148 -178 -143 -118 0
-149 -179 -144 -119 0
-150 -180 -145 -120 0
151 152 153 154 155 0
-291 -292 0
-291 -293 0
-292 -293 0
-294 -295 0
-151 291 0
-151 294 0
-152 291 0
-152 295 0
-153 292 0
-153 294 0
-154 292 0
-154 295 0
-155 293 0
-155 294 0
-151 121 0
-151 156 0
-152 122 0
-152 157 0
-153 123 0
-153 158 0
-154 124 0
-154 159 0
-155 125 0
-155 160 0
156 157 158 159 160 0
-296 -297 0
-296 -298 0
-297 -298 0
-299 -300 0
-156 296 0
-156 299 0
-157 296 0
-157 300 0
-158 297 0
-158 299 0
-159 297 0
-159 300 0
-160 298 0
-160 299 0
-156 126 161 0
-156 126 151 0
-156 161 151 0
-157 127 162 0
-157 127 152 0
-157 162 152 0
-158 128 163 0
-158 128 153 0
-158 163 153 0
-159 129 164 0
-159 129 154 0
-159 164 154 0
-160 130 165 0
-160 130 155 0
-160 165 155 0
-156 -126 -161 -151 0
-157 -127 -162 -152 0
-158 -128 -163 -153 0
-159 -129 -164 -154 0
-160 -130 -165 -155 0
161 162 163 164 165 0
-301 -302 0
-301 -303 0
-302 -303 0
-304 -305 0
-161 301 0
-161 304 0
-162 301 0
-162 305 0
-163 302 0
-163 304 0
-164 302 0
-164 305 0
-165 303 0
-165 304 0
-161 131 166 0
-161 131 156 0
-161 166 156 0
-162 132 167 0
-162 132 157 0
-162 167 157 0
-163 133 168 0
-163 133 158 0
-163 168 158 0
-164 134 169 0
-164 134 159 0
-164 169 159 0
-165 135 170 0
-165 135 160 0
-165 170 160 0
-161 -131 -166 -156 0
-162 -132 -167 -157 0
-163 -133 -168 -158 0
-164 -134 -169 -159 0
-165 -135 -170 -160 0
166 167 168 169 170 0
-306 -307 0
-306 -308 0
-307 -308 0
-309 -310 0
-166 306 0
-166 309 0
-167 306 0
-167 310 0
-168 307 0
-168 309 0
-169 307 0
-169 310 0
-170 308 0
-170 309 0
-166 136 171 0
-166 136 161 0
-166 171 161 0
-167 137 172 0
-167 137 162 0
-167 172 162 0
-168 138 173 0
-168 138 163 0
-168 173 163 0
-169 139 174 0
-169 139 164 0
-169 174 164 0
-170 140 175 0
-170 140 165 0
-170 175 165 0
-166 -136 -171 -161 0
-167 -137 -172 -162 0
-168 -138 -173 -163 0
-169 -139 -174 -164 0
-170 -140 -175 -165 0
173 0
-171 0
-172 0
-174 0
-175 0
143 178 168 0
-143 -178 0
-143 -168 0
-178 -168 0
176 0
-177 0
-178 0
-179 0
-180 0
146 171 0
-146 -171 0